data/lp_files/q3/65_1.lp
\ Model foo
\ LP format - for model browsing. Use MPS format to capture full model detail.
Minimize
  z
Subject To
 allocateEach[1]: x[1,1] + x[2,1] + x[3,1] + x[4,1] = 1
 allocateEach[2]: x[1,2] + x[2,2] + x[3,2] + x[4,2] = 1
 allocateEach[3]: x[1,3] + x[2,3] + x[3,3] + x[4,3] = 1
 allocateEach[4]: x[1,4] + x[2,4] + x[3,4] + x[4,4] = 1
 allocateEach[5]: x[1,5] + x[2,5] + x[3,5] + x[4,5] = 1
 allocateAllCash: cashProportion[1] + cashProportion[2] + cashProportion[3]
   + cashProportion[4] = 1
 findWorstP[1,2]: z + 0.0474743638435245 cashProportion[1]
   - 0.0474743638435245 cashProportion[2] + 0.0507026205848842 x[1,1]
   + 0.4337732624382833 x[1,2] + 0.2242688947968098 x[1,3]
   + 0.1552886441321686 x[1,4] + 0.0884922142043297 x[1,5]
   - 0.0507026205848842 x[2,1] - 0.4337732624382833 x[2,2]
   - 0.2242688947968098 x[2,3] - 0.1552886441321686 x[2,4]
   - 0.0884922142043297 x[2,5] >= 0
 findWorstP[1,3]: z + 0.0474743638435245 cashProportion[1]
   - 0.0474743638435245 cashProportion[3] + 0.0507026205848842 x[1,1]
   + 0.4337732624382833 x[1,2] + 0.2242688947968098 x[1,3]
   + 0.1552886441321686 x[1,4] + 0.0884922142043297 x[1,5]
   - 0.0507026205848842 x[3,1] - 0.4337732624382833 x[3,2]
   - 0.2242688947968098 x[3,3] - 0.1552886441321686 x[3,4]
   - 0.0884922142043297 x[3,5] >= 0
 findWorstP[1,4]: z + 0.0474743638435245 cashProportion[1]
   - 0.0474743638435245 cashProportion[4] + 0.0507026205848842 x[1,1]
   + 0.4337732624382833 x[1,2] + 0.2242688947968098 x[1,3]
   + 0.1552886441321686 x[1,4] + 0.0884922142043297 x[1,5]
   - 0.0507026205848842 x[4,1] - 0.4337732624382833 x[4,2]
   - 0.2242688947968098 x[4,3] - 0.1552886441321686 x[4,4]
   - 0.0884922142043297 x[4,5] >= 0
 findWorstP[2,1]: z - 0.0386398763523957 cashProportion[1]
   + 0.0386398763523957 cashProportion[2] - 0.3740340030911901 x[1,1]
   - 0.0399922720247295 x[1,2] - 0.2003863987635239 x[1,3]
   - 0.1042890262751159 x[1,4] - 0.2426584234930448 x[1,5]
   + 0.3740340030911901 x[2,1] + 0.0399922720247295 x[2,2]
   + 0.2003863987635239 x[2,3] + 0.1042890262751159 x[2,4]
   + 0.2426584234930448 x[2,5] >= 0
 findWorstP[2,3]: z + 0.0386398763523957 cashProportion[2]
   - 0.0386398763523957 cashProportion[3] + 0.3740340030911901 x[2,1]
   + 0.0399922720247295 x[2,2] + 0.2003863987635239 x[2,3]
   + 0.1042890262751159 x[2,4] + 0.2426584234930448 x[2,5]
   - 0.3740340030911901 x[3,1] - 0.0399922720247295 x[3,2]
   - 0.2003863987635239 x[3,3] - 0.1042890262751159 x[3,4]
   - 0.2426584234930448 x[3,5] >= 0
 findWorstP[2,4]: z + 0.0386398763523957 cashProportion[2]
   - 0.0386398763523957 cashProportion[4] + 0.3740340030911901 x[2,1]
   + 0.0399922720247295 x[2,2] + 0.2003863987635239 x[2,3]
   + 0.1042890262751159 x[2,4] + 0.2426584234930448 x[2,5]
   - 0.3740340030911901 x[4,1] - 0.0399922720247295 x[4,2]
   - 0.2003863987635239 x[4,3] - 0.1042890262751159 x[4,4]
   - 0.2426584234930448 x[4,5] >= 0
 findWorstP[3,1]: z - 0.039859693877551 cashProportion[1]
   + 0.039859693877551 cashProportion[3] - 0.0328842474489796 x[1,1]
   - 0.1830755739795918 x[1,2] - 0.2619579081632653 x[1,3]
   - 0.2535873724489796 x[1,4] - 0.2286352040816327 x[1,5]
   + 0.0328842474489796 x[3,1] + 0.1830755739795918 x[3,2]
   + 0.2619579081632653 x[3,3] + 0.2535873724489796 x[3,4]
   + 0.2286352040816327 x[3,5] >= 0
 findWorstP[3,2]: z - 0.039859693877551 cashProportion[2]
   + 0.039859693877551 cashProportion[3] - 0.0328842474489796 x[2,1]
   - 0.1830755739795918 x[2,2] - 0.2619579081632653 x[2,3]
   - 0.2535873724489796 x[2,4] - 0.2286352040816327 x[2,5]
   + 0.0328842474489796 x[3,1] + 0.1830755739795918 x[3,2]
   + 0.2619579081632653 x[3,3] + 0.2535873724489796 x[3,4]
   + 0.2286352040816327 x[3,5] >= 0
 findWorstP[3,4]: z + 0.039859693877551 cashProportion[3]
   - 0.039859693877551 cashProportion[4] + 0.0328842474489796 x[3,1]
   + 0.1830755739795918 x[3,2] + 0.2619579081632653 x[3,3]
   + 0.2535873724489796 x[3,4] + 0.2286352040816327 x[3,5]
   - 0.0328842474489796 x[4,1] - 0.1830755739795918 x[4,2]
   - 0.2619579081632653 x[4,3] - 0.2535873724489796 x[4,4]
   - 0.2286352040816327 x[4,5] >= 0
 findWorstP[4,1]: z - 0.0366407738531438 cashProportion[1]
   + 0.0366407738531438 cashProportion[4] - 0.00817089256925106 x[1,1]
   - 0.1357540671258977 x[1,2] - 0.2955078411256046 x[1,3]
   - 0.26095559138209 x[1,4] - 0.2629708339440129 x[1,5]
   + 0.00817089256925106 x[4,1] + 0.1357540671258977 x[4,2]
   + 0.2955078411256046 x[4,3] + 0.26095559138209 x[4,4]
   + 0.2629708339440129 x[4,5] >= 0
 findWorstP[4,2]: z - 0.0366407738531438 cashProportion[2]
   + 0.0366407738531438 cashProportion[4] - 0.00817089256925106 x[2,1]
   - 0.1357540671258977 x[2,2] - 0.2955078411256046 x[2,3]
   - 0.26095559138209 x[2,4] - 0.2629708339440129 x[2,5]
   + 0.00817089256925106 x[4,1] + 0.1357540671258977 x[4,2]
   + 0.2955078411256046 x[4,3] + 0.26095559138209 x[4,4]
   + 0.2629708339440129 x[4,5] >= 0
 findWorstP[4,3]: z - 0.0366407738531438 cashProportion[3]
   + 0.0366407738531438 cashProportion[4] - 0.00817089256925106 x[3,1]
   - 0.1357540671258977 x[3,2] - 0.2955078411256046 x[3,3]
   - 0.26095559138209 x[3,4] - 0.2629708339440129 x[3,5]
   + 0.00817089256925106 x[4,1] + 0.1357540671258977 x[4,2]
   + 0.2955078411256046 x[4,3] + 0.26095559138209 x[4,4]
   + 0.2629708339440129 x[4,5] >= 0
Bounds
 z <= 1
 -infinity <= cashProportion[1] <= 1
 -infinity <= cashProportion[2] <= 1
 -infinity <= cashProportion[3] <= 1
 -infinity <= cashProportion[4] <= 1
Binaries
 x[1,1] x[1,2] x[1,3] x[1,4] x[1,5] x[2,1] x[2,2] x[2,3] x[2,4] x[2,5]
 x[3,1] x[3,2] x[3,3] x[3,4] x[3,5] x[4,1] x[4,2] x[4,3] x[4,4] x[4,5]
End
