data/mps_files/q3/65_1.mps
NAME foo
ROWS
 N  OBJ
 E  allocateEach[1]
 E  allocateEach[2]
 E  allocateEach[3]
 E  allocateEach[4]
 E  allocateEach[5]
 E  allocateAllCash
 G  findWorstP[1,2]
 G  findWorstP[1,3]
 G  findWorstP[1,4]
 G  findWorstP[2,1]
 G  findWorstP[2,3]
 G  findWorstP[2,4]
 G  findWorstP[3,1]
 G  findWorstP[3,2]
 G  findWorstP[3,4]
 G  findWorstP[4,1]
 G  findWorstP[4,2]
 G  findWorstP[4,3]
COLUMNS
    z         OBJ       1
    z         findWorstP[1,2]  1
    z         findWorstP[1,3]  1
    z         findWorstP[1,4]  1
    z         findWorstP[2,1]  1
    z         findWorstP[2,3]  1
    z         findWorstP[2,4]  1
    z         findWorstP[3,1]  1
    z         findWorstP[3,2]  1
    z         findWorstP[3,4]  1
    z         findWorstP[4,1]  1
    z         findWorstP[4,2]  1
    z         findWorstP[4,3]  1
    cashProportion[1]  allocateAllCash  1
    cashProportion[1]  findWorstP[1,2]  4.7474363843524506e-02
    cashProportion[1]  findWorstP[1,3]  4.7474363843524506e-02
    cashProportion[1]  findWorstP[1,4]  4.7474363843524506e-02
    cashProportion[1]  findWorstP[2,1]  -3.8639876352395672e-02
    cashProportion[1]  findWorstP[3,1]  -3.9859693877551026e-02
    cashProportion[1]  findWorstP[4,1]  -3.6640773853143779e-02
    cashProportion[2]  allocateAllCash  1
    cashProportion[2]  findWorstP[1,2]  -4.7474363843524506e-02
    cashProportion[2]  findWorstP[2,1]  3.8639876352395672e-02
    cashProportion[2]  findWorstP[2,3]  3.8639876352395672e-02
    cashProportion[2]  findWorstP[2,4]  3.8639876352395672e-02
    cashProportion[2]  findWorstP[3,2]  -3.9859693877551026e-02
    cashProportion[2]  findWorstP[4,2]  -3.6640773853143779e-02
    cashProportion[3]  allocateAllCash  1
    cashProportion[3]  findWorstP[1,3]  -4.7474363843524506e-02
    cashProportion[3]  findWorstP[2,3]  -3.8639876352395672e-02
    cashProportion[3]  findWorstP[3,1]  3.9859693877551026e-02
    cashProportion[3]  findWorstP[3,2]  3.9859693877551026e-02
    cashProportion[3]  findWorstP[3,4]  3.9859693877551026e-02
    cashProportion[3]  findWorstP[4,3]  -3.6640773853143779e-02
    cashProportion[4]  allocateAllCash  1
    cashProportion[4]  findWorstP[1,4]  -4.7474363843524506e-02
    cashProportion[4]  findWorstP[2,4]  -3.8639876352395672e-02
    cashProportion[4]  findWorstP[3,4]  -3.9859693877551026e-02
    cashProportion[4]  findWorstP[4,1]  3.6640773853143779e-02
    cashProportion[4]  findWorstP[4,2]  3.6640773853143779e-02
    cashProportion[4]  findWorstP[4,3]  3.6640773853143779e-02
    MARKER    'MARKER'                 'INTORG'
    x[1,1]    allocateEach[1]  1
    x[1,1]    findWorstP[1,2]  5.0702620584884173e-02
    x[1,1]    findWorstP[1,3]  5.0702620584884173e-02
    x[1,1]    findWorstP[1,4]  5.0702620584884173e-02
    x[1,1]    findWorstP[2,1]  -3.7403400309119006e-01
    x[1,1]    findWorstP[3,1]  -3.2884247448979595e-02
    x[1,1]    findWorstP[4,1]  -8.1708925692510620e-03
    x[1,2]    allocateEach[2]  1
    x[1,2]    findWorstP[1,2]  4.3377326243828335e-01
    x[1,2]    findWorstP[1,3]  4.3377326243828335e-01
    x[1,2]    findWorstP[1,4]  4.3377326243828335e-01
    x[1,2]    findWorstP[2,1]  -3.9992272024729512e-02
    x[1,2]    findWorstP[3,1]  -1.8307557397959184e-01
    x[1,2]    findWorstP[4,1]  -1.3575406712589769e-01
    x[1,3]    allocateEach[3]  1
    x[1,3]    findWorstP[1,2]  2.2426889479680975e-01
    x[1,3]    findWorstP[1,3]  2.2426889479680975e-01
    x[1,3]    findWorstP[1,4]  2.2426889479680975e-01
    x[1,3]    findWorstP[2,1]  -2.0038639876352393e-01
    x[1,3]    findWorstP[3,1]  -2.6195790816326531e-01
    x[1,3]    findWorstP[4,1]  -2.9550784112560458e-01
    x[1,4]    allocateEach[4]  1
    x[1,4]    findWorstP[1,2]  1.5528864413216864e-01
    x[1,4]    findWorstP[1,3]  1.5528864413216864e-01
    x[1,4]    findWorstP[1,4]  1.5528864413216864e-01
    x[1,4]    findWorstP[2,1]  -1.0428902627511590e-01
    x[1,4]    findWorstP[3,1]  -2.5358737244897961e-01
    x[1,4]    findWorstP[4,1]  -0.26095559138209
    x[1,5]    allocateEach[5]  1
    x[1,5]    findWorstP[1,2]  8.8492214204329678e-02
    x[1,5]    findWorstP[1,3]  8.8492214204329678e-02
    x[1,5]    findWorstP[1,4]  8.8492214204329678e-02
    x[1,5]    findWorstP[2,1]  -2.4265842349304481e-01
    x[1,5]    findWorstP[3,1]  -2.2863520408163265e-01
    x[1,5]    findWorstP[4,1]  -2.6297083394401288e-01
    x[2,1]    allocateEach[1]  1
    x[2,1]    findWorstP[1,2]  -5.0702620584884173e-02
    x[2,1]    findWorstP[2,1]  3.7403400309119006e-01
    x[2,1]    findWorstP[2,3]  3.7403400309119006e-01
    x[2,1]    findWorstP[2,4]  3.7403400309119006e-01
    x[2,1]    findWorstP[3,2]  -3.2884247448979595e-02
    x[2,1]    findWorstP[4,2]  -8.1708925692510620e-03
    x[2,2]    allocateEach[2]  1
    x[2,2]    findWorstP[1,2]  -4.3377326243828335e-01
    x[2,2]    findWorstP[2,1]  3.9992272024729512e-02
    x[2,2]    findWorstP[2,3]  3.9992272024729512e-02
    x[2,2]    findWorstP[2,4]  3.9992272024729512e-02
    x[2,2]    findWorstP[3,2]  -1.8307557397959184e-01
    x[2,2]    findWorstP[4,2]  -1.3575406712589769e-01
    x[2,3]    allocateEach[3]  1
    x[2,3]    findWorstP[1,2]  -2.2426889479680975e-01
    x[2,3]    findWorstP[2,1]  2.0038639876352393e-01
    x[2,3]    findWorstP[2,3]  2.0038639876352393e-01
    x[2,3]    findWorstP[2,4]  2.0038639876352393e-01
    x[2,3]    findWorstP[3,2]  -2.6195790816326531e-01
    x[2,3]    findWorstP[4,2]  -2.9550784112560458e-01
    x[2,4]    allocateEach[4]  1
    x[2,4]    findWorstP[1,2]  -1.5528864413216864e-01
    x[2,4]    findWorstP[2,1]  1.0428902627511590e-01
    x[2,4]    findWorstP[2,3]  1.0428902627511590e-01
    x[2,4]    findWorstP[2,4]  1.0428902627511590e-01
    x[2,4]    findWorstP[3,2]  -2.5358737244897961e-01
    x[2,4]    findWorstP[4,2]  -0.26095559138209
    x[2,5]    allocateEach[5]  1
    x[2,5]    findWorstP[1,2]  -8.8492214204329678e-02
    x[2,5]    findWorstP[2,1]  2.4265842349304481e-01
    x[2,5]    findWorstP[2,3]  2.4265842349304481e-01
    x[2,5]    findWorstP[2,4]  2.4265842349304481e-01
    x[2,5]    findWorstP[3,2]  -2.2863520408163265e-01
    x[2,5]    findWorstP[4,2]  -2.6297083394401288e-01
    x[3,1]    allocateEach[1]  1
    x[3,1]    findWorstP[1,3]  -5.0702620584884173e-02
    x[3,1]    findWorstP[2,3]  -3.7403400309119006e-01
    x[3,1]    findWorstP[3,1]  3.2884247448979595e-02
    x[3,1]    findWorstP[3,2]  3.2884247448979595e-02
    x[3,1]    findWorstP[3,4]  3.2884247448979595e-02
    x[3,1]    findWorstP[4,3]  -8.1708925692510620e-03
    x[3,2]    allocateEach[2]  1
    x[3,2]    findWorstP[1,3]  -4.3377326243828335e-01
    x[3,2]    findWorstP[2,3]  -3.9992272024729512e-02
    x[3,2]    findWorstP[3,1]  1.8307557397959184e-01
    x[3,2]    findWorstP[3,2]  1.8307557397959184e-01
    x[3,2]    findWorstP[3,4]  1.8307557397959184e-01
    x[3,2]    findWorstP[4,3]  -1.3575406712589769e-01
    x[3,3]    allocateEach[3]  1
    x[3,3]    findWorstP[1,3]  -2.2426889479680975e-01
    x[3,3]    findWorstP[2,3]  -2.0038639876352393e-01
    x[3,3]    findWorstP[3,1]  2.6195790816326531e-01
    x[3,3]    findWorstP[3,2]  2.6195790816326531e-01
    x[3,3]    findWorstP[3,4]  2.6195790816326531e-01
    x[3,3]    findWorstP[4,3]  -2.9550784112560458e-01
    x[3,4]    allocateEach[4]  1
    x[3,4]    findWorstP[1,3]  -1.5528864413216864e-01
    x[3,4]    findWorstP[2,3]  -1.0428902627511590e-01
    x[3,4]    findWorstP[3,1]  2.5358737244897961e-01
    x[3,4]    findWorstP[3,2]  2.5358737244897961e-01
    x[3,4]    findWorstP[3,4]  2.5358737244897961e-01
    x[3,4]    findWorstP[4,3]  -0.26095559138209
    x[3,5]    allocateEach[5]  1
    x[3,5]    findWorstP[1,3]  -8.8492214204329678e-02
    x[3,5]    findWorstP[2,3]  -2.4265842349304481e-01
    x[3,5]    findWorstP[3,1]  2.2863520408163265e-01
    x[3,5]    findWorstP[3,2]  2.2863520408163265e-01
    x[3,5]    findWorstP[3,4]  2.2863520408163265e-01
    x[3,5]    findWorstP[4,3]  -2.6297083394401288e-01
    x[4,1]    allocateEach[1]  1
    x[4,1]    findWorstP[1,4]  -5.0702620584884173e-02
    x[4,1]    findWorstP[2,4]  -3.7403400309119006e-01
    x[4,1]    findWorstP[3,4]  -3.2884247448979595e-02
    x[4,1]    findWorstP[4,1]  8.1708925692510620e-03
    x[4,1]    findWorstP[4,2]  8.1708925692510620e-03
    x[4,1]    findWorstP[4,3]  8.1708925692510620e-03
    x[4,2]    allocateEach[2]  1
    x[4,2]    findWorstP[1,4]  -4.3377326243828335e-01
    x[4,2]    findWorstP[2,4]  -3.9992272024729512e-02
    x[4,2]    findWorstP[3,4]  -1.8307557397959184e-01
    x[4,2]    findWorstP[4,1]  1.3575406712589769e-01
    x[4,2]    findWorstP[4,2]  1.3575406712589769e-01
    x[4,2]    findWorstP[4,3]  1.3575406712589769e-01
    x[4,3]    allocateEach[3]  1
    x[4,3]    findWorstP[1,4]  -2.2426889479680975e-01
    x[4,3]    findWorstP[2,4]  -2.0038639876352393e-01
    x[4,3]    findWorstP[3,4]  -2.6195790816326531e-01
    x[4,3]    findWorstP[4,1]  2.9550784112560458e-01
    x[4,3]    findWorstP[4,2]  2.9550784112560458e-01
    x[4,3]    findWorstP[4,3]  2.9550784112560458e-01
    x[4,4]    allocateEach[4]  1
    x[4,4]    findWorstP[1,4]  -1.5528864413216864e-01
    x[4,4]    findWorstP[2,4]  -1.0428902627511590e-01
    x[4,4]    findWorstP[3,4]  -2.5358737244897961e-01
    x[4,4]    findWorstP[4,1]  0.26095559138209
    x[4,4]    findWorstP[4,2]  0.26095559138209
    x[4,4]    findWorstP[4,3]  0.26095559138209
    x[4,5]    allocateEach[5]  1
    x[4,5]    findWorstP[1,4]  -8.8492214204329678e-02
    x[4,5]    findWorstP[2,4]  -2.4265842349304481e-01
    x[4,5]    findWorstP[3,4]  -2.2863520408163265e-01
    x[4,5]    findWorstP[4,1]  2.6297083394401288e-01
    x[4,5]    findWorstP[4,2]  2.6297083394401288e-01
    x[4,5]    findWorstP[4,3]  2.6297083394401288e-01
    MARKER    'MARKER'                 'INTEND'
RHS
    RHS1      allocateEach[1]  1
    RHS1      allocateEach[2]  1
    RHS1      allocateEach[3]  1
    RHS1      allocateEach[4]  1
    RHS1      allocateEach[5]  1
    RHS1      allocateAllCash  1
BOUNDS
 UP BND1      z         1
 MI BND1      cashProportion[1]
 UP BND1      cashProportion[1]  1
 MI BND1      cashProportion[2]
 UP BND1      cashProportion[2]  1
 MI BND1      cashProportion[3]
 UP BND1      cashProportion[3]  1
 MI BND1      cashProportion[4]
 UP BND1      cashProportion[4]  1
 BV BND1      x[1,1]  
 BV BND1      x[1,2]  
 BV BND1      x[1,3]  
 BV BND1      x[1,4]  
 BV BND1      x[1,5]  
 BV BND1      x[2,1]  
 BV BND1      x[2,2]  
 BV BND1      x[2,3]  
 BV BND1      x[2,4]  
 BV BND1      x[2,5]  
 BV BND1      x[3,1]  
 BV BND1      x[3,2]  
 BV BND1      x[3,3]  
 BV BND1      x[3,4]  
 BV BND1      x[3,5]  
 BV BND1      x[4,1]  
 BV BND1      x[4,2]  
 BV BND1      x[4,3]  
 BV BND1      x[4,4]  
 BV BND1      x[4,5]  
ENDATA
